maximize
obj: 918 x_1_ + 1312 x_2_ + 639 x_3_ + 491 x_4_ + 1121 x_5_ + 1416 x_6_ + 1280 x_7_ + 1295 x_8_ + 864 x_9_ + 175 x_10_ + 951 x_11_ + 830 x_12_ + 1133 x_13_ + 124 x_14_ + 1225 x_15_ + 423 x_16_ + 572 x_17_ + 124 x_18_ + 801 x_19_ + 342 x_20_ + 842 x_21_ + 780 x_22_ + 624 x_23_ + 451 x_24_ + 602 x_25_ + 1017 x_26_ + 968 x_27_ + 945 x_28_ + 899 x_29_ + 937 x_30_ + 1198 x_31_ + 384 x_32_ + 1058 x_33_ + 778 x_34_ + 623 x_35_ + 281 x_36_ + 495 x_37_ + 1050 x_38_ + 1097 x_39_ + 530 x_40_ + 104 x_41_ + 926 x_42_ + 771 x_43_ + 819 x_44_ + 747 x_45_ + 1031 x_46_ + 877 x_47_ + 968 x_48_ + 667 x_49_ + 620 x_50_ + 909 x_51_ + 305 x_52_ + 845 x_53_ + 843 x_54_ + 581 x_55_ + 291 x_56_ + 597 x_57_ + 987 x_58_ + 260 x_59_ + 804 x_60_ + 402 x_61_ + 296 x_62_ + 512 x_63_ + 749 x_64_ + 579 x_65_ + 1042 x_66_ + 889 x_67_ + 984 x_68_ + 896 x_69_ + 239 x_70_ + 829 x_71_ + 699 x_72_ + 581 x_73_ + 357 x_74_ + 1064 x_75_ + 1155 x_76_ + 288 x_77_ + 1509 x_78_ + 674 x_79_ + 904 x_80_ + 842 x_81_ + 742 x_82_ + 542 x_83_ + 1242 x_84_ + 1354 x_85_ + 859 x_86_ + 557 x_87_ + 985 x_88_ + 832 x_89_ + 1150 x_90_ + 263 x_91_ + 1022 x_92_ + 1238 x_93_ + 268 x_94_ + 1135 x_95_ + 673 x_96_ + 1212 x_97_ + 1236 x_98_ + 495 x_99_ + 1224 x_100_ + 1000 s_1_ + 1000 s_2_ + 1000 s_3_ + 1000 s_4_ + 1000 s_5_ - 1000 ss_1_
subject to
c2: 1 s_1_ + 523 x_1_ + 940 x_2_ + 933 x_3_ + 411 x_4_ + 125 x_5_ + 834 x_6_ + 298 x_7_ + 671 x_8_ + 664 x_9_ + 901 x_10_ + 236 x_11_ + 382 x_12_ + 381 x_13_ + 789 x_14_ + 613 x_15_ + 954 x_16_ + 637 x_17_ + 438 x_18_ + 911 x_19_ + 459 x_20_ + 630 x_21_ + 722 x_22_ + 929 x_23_ + 225 x_24_ + 463 x_25_ + 702 x_26_ + 870 x_27_ + 787 x_28_ + 577 x_29_ + 119 x_30_ + 835 x_31_ + 795 x_32_ + 313 x_33_ + 938 x_34_ + 239 x_35_ + 751 x_36_ + 736 x_37_ + 447 x_38_ + 81 x_39_ + 984 x_40_ + 529 x_41_ + 683 x_42_ + 67 x_43_ + 55 x_44_ + 21 x_45_ + 192 x_46_ + 776 x_47_ + 797 x_48_ + 248 x_49_ + 253 x_50_ + 405 x_51_ + 600 x_52_ + 706 x_53_ + 188 x_54_ + 882 x_55_ + 28 x_56_ + 165 x_57_ + 912 x_58_ + 368 x_59_ + 896 x_60_ + 825 x_61_ + 235 x_62_ + 72 x_63_ + 739 x_64_ + 873 x_65_ + 169 x_66_ + 408 x_67_ + 986 x_68_ + 474 x_69_ + 838 x_70_ + 108 x_71_ + 331 x_72_ + 361 x_73_ + 360 x_74_ + 790 x_75_ + 206 x_76_ + 258 x_77_ + 331 x_78_ + 117 x_79_ + 208 x_80_ + 865 x_81_ + 521 x_82_ + 214 x_83_ + 607 x_84_ + 625 x_85_ + 126 x_86_ + 549 x_87_ + 429 x_88_ + 541 x_89_ + 636 x_90_ + 26 x_91_ + 366 x_92_ + 194 x_93_ + 476 x_94_ + 956 x_95_ + 568 x_96_ + 520 x_97_ + 159 x_98_ + 879 x_99_ + 404 x_100_ <= 12841
c3: 1 s_2_ + 524 x_1_ + 304 x_2_ + 525 x_3_ + 400 x_4_ + 928 x_5_ + 370 x_6_ + 589 x_7_ + 986 x_8_ + 933 x_9_ + 168 x_10_ + 661 x_11_ + 28 x_12_ + 349 x_13_ + 864 x_14_ + 305 x_15_ + 74 x_16_ + 692 x_17_ + 502 x_18_ + 177 x_19_ + 461 x_20_ + 752 x_21_ + 562 x_22_ + 708 x_23_ + 733 x_24_ + 956 x_25_ + 858 x_26_ + 535 x_27_ + 848 x_28_ + 592 x_29_ + 701 x_30_ + 219 x_31_ + 597 x_32_ + 774 x_33_ + 716 x_34_ + 450 x_35_ + 871 x_36_ + 84 x_37_ + 881 x_38_ + 239 x_39_ + 83 x_40_ + 285 x_41_ + 309 x_42_ + 713 x_43_ + 16 x_44_ + 47 x_45_ + 475 x_46_ + 541 x_47_ + 592 x_48_ + 610 x_49_ + 165 x_50_ + 990 x_51_ + 378 x_52_ + 45 x_53_ + 642 x_54_ + 870 x_55_ + 605 x_56_ + 856 x_57_ + 812 x_58_ + 833 x_59_ + 837 x_60_ + 512 x_61_ + 83 x_62_ + 54 x_63_ + 998 x_64_ + 743 x_65_ + 668 x_66_ + 748 x_67_ + 809 x_68_ + 704 x_69_ + 630 x_70_ + 414 x_71_ + 25 x_72_ + 723 x_73_ + 10 x_74_ + 479 x_75_ + 923 x_76_ + 156 x_77_ + 505 x_78_ + 844 x_79_ + 897 x_80_ + 483 x_81_ + 611 x_82_ + 956 x_83_ + 590 x_84_ + 452 x_85_ + 323 x_86_ + 328 x_87_ + 199 x_88_ + 501 x_89_ + 883 x_90_ + 81 x_91_ + 14 x_92_ + 953 x_93_ + 88 x_94_ + 134 x_95_ + 573 x_96_ + 887 x_97_ + 326 x_98_ + 491 x_99_ + 269 x_100_ <= 13172
c4: 1 s_3_ + 441 x_1_ + 777 x_2_ + 73 x_3_ + 948 x_4_ + 126 x_5_ + 873 x_6_ + 984 x_7_ + 192 x_8_ + 590 x_9_ + 139 x_10_ + 260 x_11_ + 494 x_12_ + 352 x_13_ + 215 x_14_ + 786 x_15_ + 264 x_16_ + 486 x_17_ + 318 x_18_ + 489 x_19_ + 266 x_20_ + 668 x_21_ + 263 x_22_ + 489 x_23_ + 11 x_24_ + 139 x_25_ + 301 x_26_ + 37 x_27_ + 132 x_28_ + 831 x_29_ + 738 x_30_ + 727 x_31_ + 459 x_32_ + 737 x_33_ + 818 x_34_ + 304 x_35_ + 988 x_36_ + 702 x_37_ + 144 x_38_ + 156 x_39_ + 180 x_40_ + 885 x_41_ + 289 x_42_ + 199 x_43_ + 493 x_44_ + 657 x_45_ + 234 x_46_ + 866 x_47_ + 952 x_48_ + 50 x_49_ + 834 x_50_ + 891 x_51_ + 398 x_52_ + 604 x_53_ + 791 x_54_ + 8 x_55_ + 917 x_56_ + 76 x_57_ + 266 x_58_ + 233 x_59_ + 322 x_60_ + 830 x_61_ + 370 x_62_ + 248 x_63_ + 579 x_64_ + 120 x_65_ + 976 x_66_ + 554 x_67_ + 890 x_68_ + 364 x_69_ + 488 x_70_ + 435 x_71_ + 704 x_72_ + 56 x_73_ + 435 x_74_ + 891 x_75_ + 776 x_76_ + 5 x_77_ + 804 x_78_ + 858 x_79_ + 198 x_80_ + 993 x_81_ + 344 x_82_ + 124 x_83_ + 955 x_84_ + 885 x_85_ + 884 x_86_ + 565 x_87_ + 42 x_88_ + 94 x_89_ + 558 x_90_ + 19 x_91_ + 328 x_92_ + 77 x_93_ + 564 x_94_ + 54 x_95_ + 749 x_96_ + 597 x_97_ + 973 x_98_ + 633 x_99_ + 469 x_100_ <= 12088
c5: 1 s_4_ + 959 x_1_ + 912 x_2_ + 469 x_3_ + 37 x_4_ + 671 x_5_ + 16 x_6_ + 465 x_7_ + 366 x_8_ + 172 x_9_ + 940 x_10_ + 636 x_11_ + 467 x_12_ + 250 x_13_ + 120 x_14_ + 678 x_15_ + 210 x_16_ + 328 x_17_ + 910 x_18_ + 529 x_19_ + 620 x_20_ + 1 x_21_ + 18 x_22_ + 284 x_23_ + 940 x_24_ + 931 x_25_ + 8 x_26_ + 121 x_27_ + 10 x_28_ + 728 x_29_ + 790 x_30_ + 171 x_31_ + 613 x_32_ + 200 x_33_ + 73 x_34_ + 882 x_35_ + 138 x_36_ + 83 x_37_ + 969 x_38_ + 105 x_39_ + 55 x_40_ + 335 x_41_ + 75 x_42_ + 46 x_43_ + 909 x_44_ + 774 x_45_ + 858 x_46_ + 863 x_47_ + 665 x_48_ + 845 x_49_ + 812 x_50_ + 549 x_51_ + 338 x_52_ + 460 x_53_ + 214 x_54_ + 42 x_55_ + 952 x_56_ + 152 x_57_ + 808 x_58_ + 169 x_59_ + 161 x_60_ + 162 x_61_ + 446 x_62_ + 162 x_63_ + 514 x_64_ + 502 x_65_ + 507 x_66_ + 578 x_67_ + 655 x_68_ + 963 x_69_ + 29 x_70_ + 356 x_71_ + 939 x_72_ + 605 x_73_ + 217 x_74_ + 145 x_75_ + 670 x_76_ + 604 x_77_ + 821 x_78_ + 121 x_79_ + 434 x_80_ + 818 x_81_ + 720 x_82_ + 711 x_83_ + 804 x_84_ + 615 x_85_ + 745 x_86_ + 134 x_87_ + 835 x_88_ + 205 x_89_ + 946 x_90_ + 894 x_91_ + 385 x_92_ + 491 x_93_ + 915 x_94_ + 956 x_95_ + 204 x_96_ + 449 x_97_ + 862 x_98_ + 596 x_99_ + 460 x_100_ <= 12269
c6: 1 s_5_ + 1000 x_1_ + 430 x_2_ + 888 x_3_ + 258 x_4_ + 727 x_5_ + 557 x_6_ + 270 x_7_ + 509 x_8_ + 493 x_9_ + 538 x_10_ + 178 x_11_ + 468 x_12_ + 266 x_13_ + 104 x_14_ + 848 x_15_ + 850 x_16_ + 931 x_17_ + 477 x_18_ + 528 x_19_ + 525 x_20_ + 882 x_21_ + 287 x_22_ + 200 x_23_ + 93 x_24_ + 697 x_25_ + 974 x_26_ + 498 x_27_ + 20 x_28_ + 490 x_29_ + 969 x_30_ + 26 x_31_ + 578 x_32_ + 897 x_33_ + 130 x_34_ + 198 x_35_ + 253 x_36_ + 916 x_37_ + 864 x_38_ + 891 x_39_ + 714 x_40_ + 48 x_41_ + 497 x_42_ + 963 x_43_ + 255 x_44_ + 370 x_45_ + 84 x_46_ + 769 x_47_ + 765 x_48_ + 656 x_49_ + 767 x_50_ + 16 x_51_ + 334 x_52_ + 749 x_53_ + 806 x_54_ + 966 x_55_ + 378 x_56_ + 247 x_57_ + 126 x_58_ + 860 x_59_ + 601 x_60_ + 545 x_61_ + 5 x_62_ + 163 x_63_ + 487 x_64_ + 447 x_65_ + 889 x_66_ + 910 x_67_ + 771 x_68_ + 485 x_69_ + 626 x_70_ + 65 x_71_ + 958 x_72_ + 893 x_73_ + 985 x_74_ + 156 x_75_ + 892 x_76_ + 253 x_77_ + 661 x_78_ + 720 x_79_ + 988 x_80_ + 588 x_81_ + 474 x_82_ + 518 x_83_ + 878 x_84_ + 705 x_85_ + 664 x_86_ + 818 x_87_ + 793 x_88_ + 154 x_89_ + 676 x_90_ + 170 x_91_ + 963 x_92_ + 165 x_93_ + 25 x_94_ + 742 x_95_ + 661 x_96_ + 689 x_97_ + 429 x_98_ + 703 x_99_ + 964 x_100_ <= 13839
c1: 1 ss_1_ + 556 x_1_ + 125 x_2_ + 736 x_3_ + 557 x_4_ + 301 x_5_ + 6 x_6_ + 111 x_7_ + 16 x_8_ + 704 x_9_ + 952 x_10_ + 408 x_11_ + 492 x_12_ + 163 x_13_ + 938 x_14_ + 315 x_15_ + 949 x_16_ + 670 x_17_ + 1000 x_18_ + 457 x_19_ + 816 x_20_ + 357 x_21_ + 495 x_22_ + 916 x_23_ + 852 x_24_ + 614 x_25_ + 161 x_26_ + 60 x_27_ + 382 x_28_ + 373 x_29_ + 570 x_30_ + 182 x_31_ + 934 x_32_ + 129 x_33_ + 542 x_34_ + 767 x_35_ + 964 x_36_ + 896 x_37_ + 350 x_38_ + 178 x_39_ + 557 x_40_ + 975 x_41_ + 70 x_42_ + 226 x_43_ + 356 x_44_ + 404 x_45_ + 79 x_46_ + 833 x_47_ + 616 x_48_ + 575 x_49_ + 987 x_50_ + 340 x_51_ + 794 x_52_ + 321 x_53_ + 337 x_54_ + 580 x_55_ + 920 x_56_ + 425 x_57_ + 170 x_58_ + 955 x_59_ + 581 x_60_ + 739 x_61_ + 622 x_62_ + 473 x_63_ + 789 x_64_ + 946 x_65_ + 499 x_66_ + 666 x_67_ + 546 x_68_ + 630 x_69_ + 997 x_70_ + 462 x_71_ + 750 x_72_ + 841 x_73_ + 795 x_74_ + 2 x_75_ + 522 x_76_ + 778 x_77_ + 42 x_78_ + 714 x_79_ + 645 x_80_ + 855 x_81_ + 396 x_82_ + 768 x_83_ + 392 x_84_ + 141 x_85_ + 544 x_86_ + 847 x_87_ + 263 x_88_ + 325 x_89_ + 227 x_90_ + 765 x_91_ + 128 x_92_ + 10 x_93_ + 973 x_94_ + 162 x_95_ + 743 x_96_ + 208 x_97_ + 223 x_98_ + 981 x_99_ + 143 x_100_ >= 13162
Bounds
s_1_ <= 0
s_2_ <= 0
s_3_ <= 0
s_4_ <= 0
s_5_ <= 0
ss_1_ >= 0
Binary
x_1_
x_2_
x_3_
x_4_
x_5_
x_6_
x_7_
x_8_
x_9_
x_10_
x_11_
x_12_
x_13_
x_14_
x_15_
x_16_
x_17_
x_18_
x_19_
x_20_
x_21_
x_22_
x_23_
x_24_
x_25_
x_26_
x_27_
x_28_
x_29_
x_30_
x_31_
x_32_
x_33_
x_34_
x_35_
x_36_
x_37_
x_38_
x_39_
x_40_
x_41_
x_42_
x_43_
x_44_
x_45_
x_46_
x_47_
x_48_
x_49_
x_50_
x_51_
x_52_
x_53_
x_54_
x_55_
x_56_
x_57_
x_58_
x_59_
x_60_
x_61_
x_62_
x_63_
x_64_
x_65_
x_66_
x_67_
x_68_
x_69_
x_70_
x_71_
x_72_
x_73_
x_74_
x_75_
x_76_
x_77_
x_78_
x_79_
x_80_
x_81_
x_82_
x_83_
x_84_
x_85_
x_86_
x_87_
x_88_
x_89_
x_90_
x_91_
x_92_
x_93_
x_94_
x_95_
x_96_
x_97_
x_98_
x_99_
x_100_
End
